10  5
 3  9  0  8  2 11  1  4  4 15  14 180  10
 0  7  1  6  2 10  3  4  4 10   2 188   5
 1  8  0 11  2 15  3  4  4  9   3 162  10
 1  7  3 11  2 13  0  4  4  9  11 165   5
 1 10  3  4  2 16  0  6  4 12   1 195  10
 3 11  0  6  2 12  1  8  4 12  38 186   5
 1 10  3  7  2 11  0  4  4 16  12 184   5
 3  8  0  8  2 10  1  7  4 13   2 187   5
 1 10  3  9  2 10  0  3  4 14   9 191   5
 3  8  0  3  2 16  1 11  4 10  10 187   5
